NAME          
ROWS
 N  OBJ
 L  c1
 L  c2
 L  c3
 L  c4
 L  c5
COLUMNS
    MARKER    'MARKER'                 'INTORG'
    x[1]      c1        775
    x[1]      c2        452
    x[1]      c3        577
    x[1]      c4        98
    x[1]      c5        693
    x[1]      OBJ       -671
    x[2]      c1        832
    x[2]      c2        171
    x[2]      c3        975
    x[2]      c4        948
    x[2]      c5        691
    x[2]      OBJ       -167
    x[3]      c1        771
    x[3]      c2        301
    x[3]      c3        858
    x[3]      c4        133
    x[3]      c5        997
    x[3]      OBJ       -121
    x[4]      c1        310
    x[4]      c2        263
    x[4]      c3        415
    x[4]      c4        417
    x[4]      c5        273
    x[4]      OBJ       -506
    x[5]      c1        112
    x[5]      c2        703
    x[5]      c3        708
    x[5]      c4        443
    x[5]      c5        799
    x[5]      OBJ       -819
    x[6]      c1        592
    x[6]      c2        928
    x[6]      c3        586
    x[6]      c4        937
    x[6]      c5        881
    x[6]      OBJ       -112
    x[7]      c1        741
    x[7]      c2        308
    x[7]      c3        4
    x[7]      c4        322
    x[7]      c5        775
    x[7]      OBJ       -157
    x[8]      c1        526
    x[8]      c2        983
    x[8]      c3        449
    x[8]      c4        428
    x[8]      c5        306
    x[8]      OBJ       -278
    x[9]      c1        287
    x[9]      c2        887
    x[9]      c3        180
    x[9]      c4        632
    x[9]      c5        822
    x[9]      OBJ       -284
    x[10]     c1        518
    x[10]     c2        423
    x[10]     c3        707
    x[10]     c4        567
    x[10]     c5        573
    x[10]     OBJ       -187
    x[11]     c1        307
    x[11]     c2        606
    x[11]     c3        842
    x[11]     c4        250
    x[11]     c5        169
    x[11]     OBJ       -704
    x[12]     c1        63
    x[12]     c2        121
    x[12]     c3        808
    x[12]     c4        308
    x[12]     c5        709
    x[12]     OBJ       -364
    x[13]     c1        862
    x[13]     c2        903
    x[13]     c3        999
    x[13]     c4        896
    x[13]     c5        152
    x[13]     OBJ       -844
    x[14]     c1        823
    x[14]     c2        585
    x[14]     c3        89
    x[14]     c4        236
    x[14]     c5        794
    x[14]     OBJ       -265
    x[15]     c1        323
    x[15]     c2        357
    x[15]     c3        973
    x[15]     c4        801
    x[15]     c5        559
    x[15]     OBJ       -552
    x[16]     c1        219
    x[16]     c2        255
    x[16]     c3        731
    x[16]     c4        705
    x[16]     c5        521
    x[16]     OBJ       -331
    x[17]     c1        960
    x[17]     c2        842
    x[17]     c3        55
    x[17]     c4        855
    x[17]     c5        927
    x[17]     OBJ       -663
    x[18]     c1        803
    x[18]     c2        544
    x[18]     c3        478
    x[18]     c4        444
    x[18]     c5        651
    x[18]     OBJ       -548
    x[19]     c1        443
    x[19]     c2        831
    x[19]     c3        111
    x[19]     c4        424
    x[19]     c5        629
    x[19]     OBJ       -968
    x[20]     c1        666
    x[20]     c2        498
    x[20]     c3        15
    x[20]     c4        427
    x[20]     c5        667
    x[20]     OBJ       -574
    x[21]     c1        173
    x[21]     c2        851
    x[21]     c3        545
    x[21]     c4        694
    x[21]     c5        435
    x[21]     OBJ       -240
    x[22]     c1        477
    x[22]     c2        851
    x[22]     c3        473
    x[22]     c4        837
    x[22]     c5        703
    x[22]     OBJ       -883
    x[23]     c1        40
    x[23]     c2        452
    x[23]     c3        720
    x[23]     c4        146
    x[23]     c5        936
    x[23]     OBJ       -968
    x[24]     c1        190
    x[24]     c2        526
    x[24]     c3        442
    x[24]     c4        683
    x[24]     c5        683
    x[24]     OBJ       -740
    x[25]     c1        790
    x[25]     c2        280
    x[25]     c3        274
    x[25]     c4        868
    x[25]     c5        228
    x[25]     OBJ       -308
    x[26]     c1        10
    x[26]     c2        20
    x[26]     c3        342
    x[26]     c4        255
    x[26]     c5        711
    x[26]     OBJ       -408
    x[27]     c1        821
    x[27]     c2        377
    x[27]     c3        345
    x[27]     c4        964
    x[27]     c5        698
    x[27]     OBJ       -72
    x[28]     c1        355
    x[28]     c2        966
    x[28]     c3        103
    x[28]     c4        855
    x[28]     c5        111
    x[28]     OBJ       -865
    x[29]     c1        559
    x[29]     c2        702
    x[29]     c3        511
    x[29]     c4        526
    x[29]     c5        988
    x[29]     OBJ       -94
    x[30]     c1        120
    x[30]     c2        517
    x[30]     c3        325
    x[30]     c4        446
    x[30]     c5        864
    x[30]     OBJ       -426
    x[31]     c1        537
    x[31]     c2        82
    x[31]     c3        167
    x[31]     c4        681
    x[31]     c5        753
    x[31]     OBJ       -919
    x[32]     c1        120
    x[32]     c2        775
    x[32]     c3        839
    x[32]     c4        638
    x[32]     c5        99
    x[32]     OBJ       -358
    x[33]     c1        426
    x[33]     c2        979
    x[33]     c3        332
    x[33]     c4        966
    x[33]     c5        272
    x[33]     OBJ       -359
    x[34]     c1        807
    x[34]     c2        321
    x[34]     c3        117
    x[34]     c4        527
    x[34]     c5        926
    x[34]     OBJ       -942
    x[35]     c1        60
    x[35]     c2        605
    x[35]     c3        750
    x[35]     c4        291
    x[35]     c5        849
    x[35]     OBJ       -219
RHS
    rhs       c1        8209
    rhs       c2        9632
    rhs       c3        8422
    rhs       c4        9824
    rhs       c5        10922
RANGES
BOUNDS
 BV bounds    x[1]
 BV bounds    x[2]
 BV bounds    x[3]
 BV bounds    x[4]
 BV bounds    x[5]
 BV bounds    x[6]
 BV bounds    x[7]
 BV bounds    x[8]
 BV bounds    x[9]
 BV bounds    x[10]
 BV bounds    x[11]
 BV bounds    x[12]
 BV bounds    x[13]
 BV bounds    x[14]
 BV bounds    x[15]
 BV bounds    x[16]
 BV bounds    x[17]
 BV bounds    x[18]
 BV bounds    x[19]
 BV bounds    x[20]
 BV bounds    x[21]
 BV bounds    x[22]
 BV bounds    x[23]
 BV bounds    x[24]
 BV bounds    x[25]
 BV bounds    x[26]
 BV bounds    x[27]
 BV bounds    x[28]
 BV bounds    x[29]
 BV bounds    x[30]
 BV bounds    x[31]
 BV bounds    x[32]
 BV bounds    x[33]
 BV bounds    x[34]
 BV bounds    x[35]
ENDATA
